
Gurobi 13.0.2 (win64) logging started Fri Jul 24 09:15:13 2026

Set parameter LogFile to value "E:\codes\ExactEBRP\results\gf_c0_mechanism_transfer_c5_round30\runs\stage2__high_imbalance_seed5203__c4_candidate__300s\external\native_logs\L2.0.0.1.1.1.0.1.1_terminal_mip.gurobi.log"
Gurobi Optimizer version 13.0.2 build v13.0.2rc1 (win64 - Windows 10.0 (19045.2))

CPU model: 12th Gen Intel(R) Core(TM) i7-12700KF, instruction set [SSE2|AVX|AVX2]
Thread count: 12 physical cores, 20 logical processors, using up to 1 threads

Non-default parameters:
TimeLimit  258.4526878
MIPGap  0
MIPGapAbs  0
LogToConsole  0
Threads  1

Optimize a model with 11922 rows, 3380 columns and 67404 nonzeros (Min)
Model fingerprint: 0x2390affe
Model has 21 linear objective coefficients
Variable types: 1687 continuous, 1693 integer (1493 binary)
Coefficient statistics:
  Matrix range     [2e-02, 2e+04]
  Objective range  [2e-02, 1e+00]
  Bounds range     [5e-01, 4e+03]
  RHS range        [5e-01, 5e+04]

Presolve removed 2015 rows and 73 columns
Presolve time: 0.19s
Presolved: 9907 rows, 3307 columns, 70570 nonzeros
Variable types: 1641 continuous, 1666 integer (1484 binary)

Root relaxation: objective 2.029798e+00, 3326 iterations, 0.16 seconds (0.42 work units)

    Nodes    |    Current Node    |     Objective Bounds      |     Work
 Expl Unexpl |  Obj  Depth IntInf | Incumbent    BestBd   Gap | It/Node Time

     0     0    2.02980    0  194          -    2.02980      -     -    0s
     0     0    2.14838    0  189          -    2.14838      -     -    0s
     0     0    2.23571    0  238          -    2.23571      -     -    0s
     0     0    2.23668    0  228          -    2.23668      -     -    0s
     0     0    2.25175    0  276          -    2.25175      -     -    1s
     0     0    2.25376    0  272          -    2.25376      -     -    1s
     0     0    2.26792    0  328          -    2.26792      -     -    1s
     0     0    2.27389    0  288          -    2.27389      -     -    1s
     0     0    2.30522    0  309          -    2.30522      -     -    2s
     0     0    2.30922    0  329          -    2.30922      -     -    2s
     0     0    2.31897    0  336          -    2.31897      -     -    2s
     0     0    2.32101    0  353          -    2.32101      -     -    2s
     0     0    2.33346    0  309          -    2.33346      -     -    3s
     0     0    2.33460    0  305          -    2.33460      -     -    3s
     0     0    2.33587    0  323          -    2.33587      -     -    3s
     0     0    2.33657    0  333          -    2.33657      -     -    3s
     0     0    2.33817    0  317          -    2.33817      -     -    3s
     0     0    2.33835    0  320          -    2.33835      -     -    3s
     0     0    2.33960    0  366          -    2.33960      -     -    4s
     0     0    2.34000    0  364          -    2.34000      -     -    4s
     0     0    2.34066    0  361          -    2.34066      -     -    4s
     0     0    2.34076    0  365          -    2.34076      -     -    4s
     0     0    2.34083    0  369          -    2.34083      -     -    4s
     0     0    2.34093    0  366          -    2.34093      -     -    4s
     0     0    2.34139    0  364          -    2.34139      -     -    5s
     0     0    2.34150    0  372          -    2.34150      -     -    5s
     0     0    2.34257    0  369          -    2.34257      -     -    5s
     0     0    2.34271    0  371          -    2.34271      -     -    5s
     0     0    2.34403    0  377          -    2.34403      -     -    5s
     0     0    2.34482    0  367          -    2.34482      -     -    5s
     0     0    2.34519    0  367          -    2.34519      -     -    6s
     0     0    2.34532    0  375          -    2.34532      -     -    6s
     0     0    2.34953    0  335          -    2.34953      -     -    6s
     0     0    2.34972    0  342          -    2.34972      -     -    6s
     0     0    2.35003    0  353          -    2.35003      -     -    6s
     0     0    2.35009    0  348          -    2.35009      -     -    7s
     0     0    2.35059    0  339          -    2.35059      -     -    7s
     0     0    2.35071    0  341          -    2.35071      -     -    7s
     0     0    2.35181    0  340          -    2.35181      -     -    7s
     0     0    2.35202    0  348          -    2.35202      -     -    7s
     0     0    2.35205    0  340          -    2.35205      -     -    8s
     0     0    2.35205    0  345          -    2.35205      -     -    8s
     0     0 infeasible    0               - infeasible      -     -    8s

Cutting planes:
  Learned: 9
  Gomory: 1
  Cover: 44
  Implied bound: 90
  Clique: 11
  MIR: 224
  StrongCG: 5
  Flow cover: 108
  GUB cover: 3
  Zero half: 6
  Mod-K: 1
  Network: 21
  RLT: 3
  Relax-and-lift: 86
  BQP: 2

Explored 1 nodes (26369 simplex iterations) in 8.88 seconds (14.08 work units)
Thread count was 1 (of 20 available processors)

Solution count 0

Model is infeasible
Best objective -, best bound -, gap -

User-callback calls 3215, time in user-callback 0.00 sec
